% CdL 2
% Matematica
int: c_min = 120; % min amount of credits for core activities
int: c_max = 140; % max amount of credits for core activities
int: a_min = 30;  % min amount of credits for supplementary activities
int: a_max = 50;  % max amount of credits for supplementary activities
int: t = 10;      % credits for final examination
int: nc = 19;     % no. of core activities
int: na = 12;     % no. of supplementary activities 
int: ncSSDs = 8;  % no. of distinct SSDs for core activities
int: naSSDs = 4;  % no. of distinct SSDs for supplementary activities


cSSDs = ["FIS/01", "INF/01", "MAT/01", "MAT/02", "MAT/03", "MAT/05", "MAT/06", "MAT/08"]; 
cname = ["Logica matematica                            ",
         "Analisi matematica                           ",
         "Algebra                                      ",
         "Analisi funzionale                           ",
         "Geometria                                    ",
         "Calcolo delle probabilità                    ",
         "Fisica                                       ",
         "Calcolo numerico                             ",
         "Teoria degli insiemi                         ",
         "Algebra computazionale                       ",
         "Equazioni differenziali                      ",
         "Analisi numerica                             ",
         "Topologia generale                           ",
         "Statistica matematica                        ",
         "Laboratorio di programmazione                ",
         "Processi stocastici                          ",
         "Teoria dei modelli                           ",
         "Metodi matematici della fisica               ",
         "Teoria analitica dei numeri                  "];
cSSD = [ 3,  6,  4,  6,  5,  7,  1,  8,  3,  4,  6,  8,  5,  7,  2,  7,  3,  1,  6];
ccfu = [10,  5, 10,  5, 10, 10, 10, 10,  5,  5,  5, 10, 10,  5,  5, 10,  5, 10, 10];
cy =   [ 1,  1,  1,  1,  1,  1,  2,  2,  2,  2,  2,  2,  2,  3,  3,  3,  3,  3,  3];
ct =   [ 1,  1,  1,  2,  2,  2,  1,  1,  1,  1,  2,  2,  2,  1,  1,  1,  2,  2,  2];

aSSDs = ["INF/01", "MAT/04", "MAT/07", "MAT/09"]; 
aname = ["Ricerca operativa                            ",
         "Fondamenti della matematica                  ",
         "Fisica matematica                            ",
         "Progettazione e analisi degli algoritmi      ",
         "Didattica della matematica                   ",
         "Meccanica razionale                          ",
         "Ottimizzazione                               ",
         "Teoria dell'informazione                     ",
         "Matematiche complementari                    ",
         "Grafi e reti di flusso                       ",
         "Teoria dei codici e crittografia             ",
         "Teorie relativistiche                        "];
aSSD = [ 4,  2,  3,  1,  2,  3,  4,  1,  2,  4,  1,  3]; 
acfu = [ 5,  5,  5,  5,  5,  5,  5,  5,  5,  5,  5,  5];
ay =   [ 1,  1,  1,  1,  2,  2,  2,  2,  3,  3,  3,  3];
at =   [ 1,  1,  2,  2,  1,  1,  2,  2,  1,  1,  2,  2];
